
******************************************************************************
This program contains Ipopt, a library for large-scale nonlinear optimization.
 Ipopt is released as open source code under the Eclipse Public License (EPL).
         For more information visit https://github.com/coin-or/Ipopt
******************************************************************************

This is Ipopt version 3.14.19, running with linear solver MUMPS 5.8.1.

Number of nonzeros in equality constraint Jacobian...:     4389
Number of nonzeros in inequality constraint Jacobian.:        0
Number of nonzeros in Lagrangian Hessian.............:     1050

Total number of variables............................:     1287
                     variables with only lower bounds:        0
                variables with lower and upper bounds:      457
                     variables with only upper bounds:        0
Total number of equality constraints.................:     1274
Total number of inequality constraints...............:        0
        inequality constraints with only lower bounds:        0
   inequality constraints with lower and upper bounds:        0
        inequality constraints with only upper bounds:        0

iter    objective    inf_pr   inf_du lg(mu)  ||d||  lg(rg) alpha_du alpha_pr  ls
   0  9.8482739e+00 9.90e+01 1.90e-04  -1.0 0.00e+00    -  0.00e+00 0.00e+00   0
   1  9.8509531e+00 5.71e-03 1.43e+01  -1.0 9.86e+01    -  6.22e-02 1.00e+00h  1
   2  9.8514900e+00 1.83e-02 8.48e-02  -1.0 3.44e-01    -  9.31e-01 1.00e+00f  1
   3  9.8629370e+00 1.50e+00 3.04e-01  -1.0 2.96e+00    -  5.86e-01 1.00e+00f  1
   4  9.9471590e+00 1.52e+00 1.42e-02  -1.0 1.37e+00    -  9.95e-01 1.00e+00H  1
   5  9.8924737e+00 5.30e-01 3.53e-03  -1.0 8.33e-01    -  1.00e+00 1.00e+00h  1
   6  9.8874730e+00 3.76e-02 1.28e-02  -1.7 3.51e-01    -  9.92e-01 1.00e+00h  1
   7  9.8607375e+00 6.40e-01 6.07e-02  -2.5 8.77e-01    -  8.42e-01 1.00e+00h  1
   8  9.8571804e+00 3.10e-01 3.54e-04  -2.5 1.17e+00    -  1.00e+00 1.00e+00h  1
   9  9.8570386e+00 5.81e-03 1.17e-06  -2.5 3.71e-01    -  1.00e+00 1.00e+00h  1
iter    objective    inf_pr   inf_du lg(mu)  ||d||  lg(rg) alpha_du alpha_pr  ls
  10  9.8562114e+00 1.31e-01 4.10e-03  -3.8 7.93e-01    -  9.46e-01 1.00e+00h  1
  11  9.8494517e+00 3.77e-03 2.03e-03  -3.8 2.91e+00    -  1.00e+00 1.00e+00h  1
  12  9.8508051e+00 8.16e-05 7.78e-05  -3.8 5.41e-01    -  1.00e+00 1.00e+00h  1
  13  9.8483864e+00 2.02e-04 3.37e-04  -5.7 1.13e+00    -  7.16e-01 9.81e-01h  1
  14  9.8482121e+00 8.10e-05 6.78e-04  -5.7 6.95e-01    -  4.21e-01 6.04e-01h  1
  15  9.8482339e+00 7.61e-05 1.05e-03  -5.7 9.85e-01    -  1.60e-01 6.10e-02f  2
  16  9.8482026e+00 3.01e-05 2.03e-03  -5.7 1.02e-01    -  1.00e+00 6.05e-01h  1
  17  9.8482094e+00 2.96e-06 5.47e-09  -5.7 4.75e-03    -  1.00e+00 1.00e+00f  1
  18  9.8482050e+00 6.01e-07 1.54e-04  -8.6 5.73e-03    -  9.94e-01 8.72e-01h  1
  19  9.8482049e+00 6.50e-09 5.61e-12  -8.6 2.10e-04    -  1.00e+00 1.00e+00h  1

Number of Iterations....: 19

                                   (scaled)                 (unscaled)
Objective...............:   9.8482049287844067e+00    9.8482049287844067e+00
Dual infeasibility......:   5.6147289508728937e-12    5.6147289508728937e-12
Constraint violation....:   6.5033836094130964e-09    6.5033836094130964e-09
Variable bound violation:   0.0000000000000000e+00    0.0000000000000000e+00
Complementarity.........:   2.5136718903949965e-09    2.5136718903949965e-09
Overall NLP error.......:   6.5033836094130964e-09    6.5033836094130964e-09


Number of objective function evaluations             = 23
Number of objective gradient evaluations             = 20
Number of equality constraint evaluations            = 23
Number of inequality constraint evaluations          = 0
Number of equality constraint Jacobian evaluations   = 20
Number of inequality constraint Jacobian evaluations = 0
Number of Lagrangian Hessian evaluations             = 19
Total seconds in IPOPT                               = 0.079

EXIT: Optimal Solution Found.
